\ Model MinPaxCost
\ LP format - for model browsing. Use MPS format to capture full model detail.
Minimize
  57 t_0^{737,0} + 87 t_1^{737,0} + 90 t_2^{737,0} + 105 t_3^{737,0}
   + 91 t_4^{737,0} + 78 t_5^{737,0} + 76 t_6^{737,0} + 102 t_7^{737,0}
   + 79 t_8^{737,0} + 96 t_9^{737,0} + 76 t_10^{737,0} + 100 t_11^{737,0}
   + 84 t_12^{737,0} + 93 t_13^{737,0} + 48 t_14^{737,0} + 48 t_15^{737,0}
   + 43 t_16^{737,0} + 95 t_17^{737,0} + 97 t_18^{737,0} + 41 t_19^{737,0}
   + 50 t_20^{737,0} + 63 t_21^{737,0} + 54 t_22^{737,0} + 90 t_23^{737,0}
   + 53 t_24^{737,0} + 51 t_25^{737,0} + 42 t_26^{737,0} + 43 t_27^{737,0}
   + 42 t_28^{737,0} + 40 t_29^{737,0} + 57 t_30^{737,0} + 91 t_31^{737,0}
   + 43 t_32^{737,0} + 85 t_33^{737,0} + 90 t_34^{737,0} + 96 t_35^{737,0}
   + 101 t_36^{737,0} + 96 t_37^{737,0} + 97 t_38^{737,0} + 80 t_39^{737,0}
   + 41 t_40^{737,0} + 42 t_41^{737,0} + 99 t_42^{737,0} + 41 t_43^{737,0}
   + 91 t_44^{737,0} + 53 t_45^{737,0} + 44 t_46^{737,0} + 45 t_47^{737,0}
   + 49 t_48^{737,0} + 44 t_49^{737,0} + 41 t_50^{737,0} + 99 t_51^{737,0}
   + 52 t_52^{737,0} + 86 t_53^{737,0} + 91 t_54^{737,0} + 87 t_55^{737,0}
   + 86 t_56^{737,0} + 100 t_57^{737,0} + 46 t_58^{737,0} + 45 t_59^{737,0}
   + 47 t_60^{737,0} + 84 t_61^{737,0} + 46 t_62^{737,0} + 96 t_63^{737,0}
   + 38 t_64^{737,0} + 44 t_65^{737,0} + 44 t_66^{737,0} + 94 t_67^{737,0}
   + 65 t_68^{737,0} + 37 t_69^{737,0} + 78 t_70^{737,0} + 45 t_71^{737,0}
   + 40 t_72^{737,0} + 52 t_73^{737,0} + 44 t_74^{737,0} + 57 t_75^{737,0}
   + 66 t_76^{737,0} + 91 t_77^{737,0} + 47 t_78^{737,0} + 46 t_79^{737,0}
   + 47 t_80^{737,0} + 47 t_81^{737,0} + 41 t_82^{737,0} + 87 t_83^{737,0}
   + 49 t_84^{737,0} + 42 t_85^{737,0} + 85 t_86^{737,0} + 89 t_87^{737,0}
   + 42 t_88^{737,0} + 63 t_89^{737,0} + 49 t_90^{737,0} + 43 t_91^{737,0}
   + 49 t_92^{737,0} + 103 t_93^{737,0} + 87 t_94^{737,0}
   + 101 t_95^{737,0} + 90 t_96^{737,0} + 94 t_97^{737,0} + 84 t_98^{737,0}
   + 74 t_99^{737,0} + 78 t_100^{737,0} + 47 t_101^{737,0}
   + 36 t_102^{737,0} + 45 t_103^{737,0} + 92 t_104^{737,0}
   + 43 t_105^{737,0} + 52 t_106^{737,0} + 39 t_107^{737,0}
   + 51 t_108^{737,0} + 58 t_109^{737,0} + 65 t_110^{737,0}
   + 42 t_111^{737,0} + 40 t_112^{737,0} + 50 t_113^{737,0}
   + 39 t_114^{737,0} + 37 t_115^{737,0} + 175 t_116^{737,0}
   + 51 t_117^{737,0} + 41 t_118^{737,0} + 235 t_119^{737,0}
   + 48 t_120^{737,0} + 38.34 t_120^{79,0} + 40.44 t_120^{85,0}
   + 47 t_121^{737,0} + 35.11 t_121^{82,0} + 56 t_122^{737,0}
   + 51 t_123^{737,0} + 41 t_124^{737,0} + 38 t_125^{737,0}
   + 110 t_126^{737,0} + 45 t_127^{737,0} + 43 t_128^{737,0}
   + 47 t_129^{737,0} + 49 t_130^{737,0} + 38 t_131^{737,0}
   + 45 t_132^{737,0} + 128 t_133^{737,0} + 112 t_134^{737,0}
   + 66 t_135^{737,0} + 51 t_136^{737,0} + 43 t_137^{737,0}
   + 41 t_138^{737,0} + 48 t_139^{737,0} + 53 t_140^{737,0}
   + 190 t_141^{737,0} + 43 t_142^{737,0} + 47 t_143^{737,0}
   + 107 t_144^{737,0} + 115 t_145^{737,0} + 68 t_146^{737,0}
   + 44 t_147^{737,0} + 68 t_148^{737,0} + 43 t_149^{737,0}
   + 244 t_150^{737,0} + 89 t_151^{737,0} + 183 t_152^{737,0}
   + 45 t_153^{737,0} + 55 t_154^{737,0} + 47 t_155^{737,0}
   + 93 t_156^{737,0} + 47 t_157^{737,0} + 28.08 t_157^{142,0}
   + 30.23 t_157^{149,0} + 50 t_158^{737,0} + 41 t_159^{737,0}
   + 45 t_160^{737,0} + 28.66 t_160^{142,0} + 26.08 t_160^{149,0}
   + 45 t_161^{737,0} + 120 t_162^{737,0} + 39 t_163^{737,0}
   + 47 t_164^{737,0} + 46 t_165^{737,0} + 80 t_166^{737,0}
   + 42 t_167^{737,0} + 41 t_168^{737,0} + 44 t_169^{737,0}
   + 44 t_170^{737,0} + 85 t_171^{737,0} + 173 t_172^{737,0}
   + 48 t_173^{737,0} + 90 t_174^{737,0} + 50 t_175^{737,0}
   + 91 t_176^{737,0} + 123 t_177^{737,0} + 44 t_178^{737,0}
   + 44 t_179^{737,0} + 102 t_180^{737,0} + 43 t_181^{737,0}
   + 41 t_182^{737,0} + 43 t_183^{737,0} + 51 t_184^{737,0}
   + 47 t_185^{737,0} + 173 t_186^{737,0} + 88 t_187^{737,0}
   + 40.06 t_187^{190,0} + 97 t_188^{737,0} + 99 t_189^{737,0}
   + 102 t_190^{737,0} + 80 t_191^{737,0} + 81 t_192^{737,0}
   + 89 t_193^{737,0} + 43.1 t_193^{190,0} + 99 t_194^{737,0}
   + 90 t_195^{737,0} + 100 t_196^{737,0} + 141 t_197^{737,0}
   + 263 t_198^{737,0} + 46 t_199^{737,0} + 51 t_200^{737,0}
   + 40 t_201^{737,0} + 47 t_202^{737,0} + 41 t_203^{737,0}
   + 50 t_204^{737,0} + 36 t_205^{737,0} + 44 t_206^{737,0}
   + 49 t_207^{737,0} + 42 t_208^{737,0} + 43 t_209^{737,0}
   + 89 t_210^{737,0} + 42 t_211^{737,0} + 43 t_212^{737,0}
   + 88 t_213^{737,0} + 38 t_214^{737,0} + 42 t_215^{737,0}
   + 49 t_216^{737,0} + 199 t_217^{737,0} + 124 t_218^{737,0}
   + 42 t_219^{737,0} + 45 t_220^{737,0} + 43 t_221^{737,0}
   + 42 t_222^{737,0} + 45 t_223^{737,0} + 39 t_224^{737,0}
   + 46 t_225^{737,0} + 49 t_226^{737,0} + 50 t_227^{737,0}
   + 106 t_228^{737,0} + 45 t_229^{737,0} + 47 t_230^{737,0}
   + 42 t_231^{737,0} + 46 t_232^{737,0} + 43 t_233^{737,0}
   + 45 t_234^{737,0} + 41 t_235^{737,0} + 43 t_236^{737,0}
   + 50 t_237^{737,0} + 49 t_238^{737,0} + 43 t_239^{737,0}
   + 41 t_240^{737,0} + 40 t_241^{737,0} + 48 t_242^{737,0}
   + 44 t_243^{737,0} + 46 t_244^{737,0} + 143 t_245^{737,0}
   + 91 t_246^{737,0} + 94 t_247^{737,0} + 92 t_248^{737,0}
   + 81 t_249^{737,0} + 38.23 t_249^{246,0} + 84 t_250^{737,0}
   + 91 t_251^{737,0} + 85 t_252^{737,0} + 79 t_253^{737,0}
   + 95 t_254^{737,0} + 93 t_255^{737,0} + 44 t_256^{737,0}
   + 44 t_257^{737,0} + 122 t_258^{737,0} + 44 t_259^{737,0}
   + 42 t_260^{737,0} + 48 t_261^{737,0} + 50 t_262^{737,0}
   + 50 t_263^{737,0} + 43 t_264^{737,0} + 42 t_265^{737,0}
   + 45 t_266^{737,0} + 45 t_267^{737,0} + 49 t_268^{737,0}
   + 174 t_269^{737,0} + 207 t_270^{737,0} + 39 t_271^{737,0}
   + 48 t_272^{737,0} + 42 t_273^{737,0} + 39 t_274^{737,0}
   + 29.16 t_274^{168,0} + 39 t_275^{737,0} + 53 t_276^{737,0}
   + 41 t_277^{737,0} + 21.89 t_277^{283,0} + 43 t_278^{737,0}
   + 33.55 t_278^{161,0} + 47 t_279^{737,0} + 31.6 t_279^{154,0}
   + 44 t_280^{737,0} + 46 t_281^{737,0} + 48 t_282^{737,0}
   + 39 t_283^{737,0} + 52 t_284^{737,0} + 45 t_285^{737,0}
   + 64 t_286^{737,0} + 48 t_287^{737,0} + 47 t_288^{737,0}
   + 41 t_289^{737,0} + 38 t_290^{737,0} + 42 t_291^{737,0}
   + 49 t_292^{737,0} + 227 t_293^{737,0} + 91 t_294^{737,0}
   + 96 t_295^{737,0} + 87 t_296^{737,0} + 90 t_297^{737,0}
   + 88 t_298^{737,0} + 86 t_299^{737,0} + 82 t_300^{737,0}
   + 99 t_301^{737,0} + 83 t_302^{737,0} + 79 t_303^{737,0}
   + 91 t_304^{737,0} + 46 t_305^{737,0} + 94 t_306^{737,0}
   + 70 t_307^{737,0} + 49 t_308^{737,0} + 48 t_309^{737,0}
   + 44 t_310^{737,0} + 44 t_311^{737,0} + 47 t_312^{737,0}
   + 46 t_313^{737,0} + 52 t_314^{737,0} + 46 t_315^{737,0}
   + 125 t_316^{737,0} + 39 t_317^{737,0} + 50 t_318^{737,0}
   + 48 t_319^{737,0} + 41 t_320^{737,0} + 45 t_321^{737,0}
   + 43 t_322^{737,0} + 82 t_323^{737,0} + 45 t_324^{737,0}
   + 87 t_325^{737,0} + 101 t_326^{737,0} + 190 t_327^{737,0}
   + 83 t_328^{737,0} + 88 t_329^{737,0} + 87 t_330^{737,0}
   + 75 t_331^{737,0} + 101 t_332^{737,0} + 86 t_333^{737,0}
   + 86 t_334^{737,0} + 87 t_335^{737,0} + 87 t_336^{737,0}
   + 43 t_337^{737,0} + 44 t_338^{737,0} + 49 t_339^{737,0}
   + 48 t_340^{737,0} + 45 t_341^{737,0} + 161 t_342^{737,0}
   + 82 t_343^{737,0} + 97 t_344^{737,0} + 91 t_345^{737,0}
   + 89 t_346^{737,0} + 98 t_347^{737,0} + 78 t_348^{737,0}
   + 84 t_349^{737,0} + 91 t_350^{737,0} + 102 t_351^{737,0}
   + 68 t_352^{737,0} + 168 t_353^{737,0} + 65 t_354^{737,0}
   + 39 t_355^{737,0} + 25.05 t_355^{266,0} + 52 t_356^{737,0}
   + 37 t_357^{737,0} + 45 t_358^{737,0} + 44 t_359^{737,0}
   + 77 t_360^{737,0} + 40 t_361^{737,0} + 26.5 t_361^{266,0}
   + 84 t_362^{737,0} + 43 t_363^{737,0} + 52 t_364^{737,0}
   + 87 t_365^{737,0} + 48 t_366^{737,0} + 42 t_367^{737,0}
   + 47 t_368^{737,0} + 76 t_369^{737,0} + 269 t_370^{737,0}
   + 48 t_371^{737,0} + 47 t_372^{737,0} + 43 t_373^{737,0}
   + 82 t_374^{737,0} + 51 t_375^{737,0} + 47 t_376^{737,0}
   + 33.74 t_376^{200,0} + 47 t_377^{737,0} + 100 t_378^{737,0}
   + 159 t_379^{737,0} + 194 t_380^{737,0} + 80 t_381^{737,0}
   + 50 t_382^{737,0} + 42 t_383^{737,0} + 50 t_384^{737,0}
   + 84 t_385^{737,0} + 95 t_386^{737,0} + 41 t_387^{737,0}
   + 26.6 t_387^{282,0} + 46 t_388^{737,0} + 44 t_389^{737,0}
   + 56 t_390^{737,0} + 103 t_391^{737,0} + 76 t_392^{737,0}
   + 64 t_393^{737,0} + 43 t_394^{737,0} + 102 t_395^{737,0}
   + 80 t_396^{737,0} + 47 t_397^{737,0} + 42 t_398^{737,0}
   + 29.4 t_398^{291,0} + 46 t_399^{737,0} + 48 t_400^{737,0}
   + 60 t_401^{737,0} + 90 t_402^{737,0} + 94 t_403^{737,0}
   + 81 t_404^{737,0} + 48 t_405^{737,0} + 51 t_406^{737,0}
   + 43 t_407^{737,0} + 50 t_408^{737,0} + 44 t_409^{737,0}
   + 42 t_410^{737,0} + 41 t_411^{737,0} + 50 t_412^{737,0}
   + 46 t_413^{737,0} + 41 t_414^{737,0} + 109 t_415^{737,0}
   + 86 t_416^{737,0} + 39 t_417^{737,0} + 44 t_418^{737,0}
   + 46 t_419^{737,0} + 37 t_420^{737,0} + 86 t_421^{737,0}
   + 41 t_422^{737,0} + 26.9 t_422^{372,0} + 47 t_423^{737,0}
   + 107 t_424^{737,0} + 102 t_425^{737,0} + 49 t_426^{737,0}
   + 45 t_427^{737,0} + 49 t_428^{737,0} + 40 t_429^{737,0}
   + 43 t_430^{737,0} + 43 t_431^{737,0} + 48 t_432^{737,0}
   + 103 t_433^{737,0} + 188 t_434^{737,0} + 53 t_435^{737,0}
   + 45 t_436^{737,0} + 72 t_437^{737,0} + 49 t_438^{737,0}
   + 48 t_439^{737,0} + 53 t_440^{737,0} + 45 t_441^{737,0}
   + 30.5 t_441^{382,0} + 89 t_442^{737,0} + 66.6 t_442^{381,0}
   + 42 t_443^{737,0} + 40 t_444^{737,0} + 44 t_445^{737,0}
   + 37 t_446^{737,0} + 86 t_447^{737,0} + 47 t_448^{737,0}
   + 107 t_449^{737,0} + 51 t_450^{737,0} + 50 t_451^{737,0}
   + 45 t_452^{737,0} + 93 t_453^{737,0} + 92 t_454^{737,0}
   + 45 t_455^{737,0} + 44 t_456^{737,0} + 42 t_457^{737,0}
   + 42 t_458^{737,0} + 99 t_459^{737,0} + 102 t_460^{737,0}
   + 92 t_461^{737,0} + 115 t_462^{737,0} + 64 t_463^{737,0}
   + 56 t_464^{737,0} + 52 t_465^{737,0} + 38 t_466^{737,0}
   + 44 t_467^{737,0} + 39 t_468^{737,0} + 29.97 t_468^{394,0}
   + 51 t_469^{737,0} + 48 t_470^{737,0} + 93 t_471^{737,0}
   + 39 t_472^{737,0} + 47 t_473^{737,0} + 89 t_474^{737,0}
   + 39 t_475^{737,0} + 43 t_476^{737,0} + 53 t_477^{737,0}
   + 104 t_478^{737,0} + 95 t_479^{737,0} + 150 t_480^{737,0}
   + 87 t_481^{737,0} + 83 t_482^{737,0} + 83 t_483^{737,0}
   + 81 t_484^{737,0} + 102 t_485^{737,0} + 90 t_486^{737,0}
   + 96 t_487^{737,0} + 39 t_488^{737,0} + 51 t_489^{737,0}
   + 42 t_490^{737,0} + 50 t_491^{737,0} + 38 t_492^{737,0}
   + 39 t_493^{737,0} + 37 t_494^{737,0} + 86 t_495^{737,0}
   + 51 t_496^{737,0} + 50 t_497^{737,0} + 83 t_498^{737,0}
   + 45 t_499^{737,0} + 97 t_500^{737,0} + 41 t_501^{737,0}
   + 117 t_502^{737,0} + 38 t_503^{737,0} + 45 t_504^{737,0}
   + 94 t_505^{737,0} + 42 t_506^{737,0} + 39 t_507^{737,0}
   + 47 t_508^{737,0} + 86 t_509^{737,0} + 43 t_510^{737,0}
   + 47 t_511^{737,0} + 47 t_512^{737,0} + 39 t_513^{737,0}
   + 53 t_514^{737,0} + 92 t_515^{737,0} + 80 t_516^{737,0}
   + 43 t_517^{737,0} + 40 t_518^{737,0} + 38 t_519^{737,0}
   + 54 t_520^{737,0} + 86 t_521^{737,0} + 44 t_522^{737,0}
   + 44 t_523^{737,0} + 89 t_524^{737,0} + 46 t_525^{737,0}
   + 40 t_526^{737,0} + 41 t_527^{737,0} + 45 t_528^{737,0}
   + 37 t_529^{737,0} + 46 t_530^{737,0} + 99 t_531^{737,0}
   + 42 t_532^{737,0} + 45 t_533^{737,0} + 86 t_534^{737,0}
   + 46 t_535^{737,0} + 44 t_536^{737,0} + 44 t_537^{737,0}
   + 89 t_538^{737,0} + 43 t_539^{737,0} + 47 t_540^{737,0}
   + 172 t_541^{737,0} + 87 t_542^{737,0} + 185 t_543^{737,0}
   + 43 t_544^{737,0} + 41 t_545^{737,0} + 51 t_546^{737,0}
   + 90 t_547^{737,0} + 49 t_548^{737,0} + 37 t_549^{737,0}
   + 46 t_550^{737,0} + 48 t_551^{737,0} + 85 t_552^{737,0}
   + 38 t_553^{737,0} + 137 t_554^{737,0} + 83 t_555^{737,0}
   + 89 t_556^{737,0} + 85 t_557^{737,0} + 90 t_558^{737,0}
   + 124 t_559^{737,0} + 93 t_560^{737,0} + 70 t_561^{737,0}
   + 40 t_562^{737,0} + 100 t_563^{737,0} + 42 t_564^{737,0}
   + 53 t_565^{737,0} + 42 t_566^{737,0} + 23.96 t_566^{537,0}
   + 45 t_567^{737,0} + 47 t_568^{737,0} + 50 t_569^{737,0}
   + 96 t_570^{737,0} + 90 t_571^{737,0} + 87 t_572^{737,0}
   + 169 t_573^{737,0} + 49 t_574^{737,0} + 43 t_575^{737,0}
   + 44 t_576^{737,0} + 91 t_577^{737,0} + 45 t_578^{737,0}
   + 43 t_579^{737,0} + 41 t_580^{737,0} + 317 t_581^{737,0}
   + 89 t_582^{737,0} + 83 t_583^{737,0} + 82 t_584^{737,0}
   + 46 t_585^{737,0} + 38 t_586^{737,0} + 16.88 t_586^{588,0}
   + 46 t_587^{737,0} + 44 t_588^{737,0} + 257 t_589^{737,0}
   + 42 t_590^{737,0} + 19.44 t_590^{595,0} + 43 t_591^{737,0}
   + 82 t_592^{737,0} + 38 t_593^{737,0} + 42 t_594^{737,0}
   + 47 t_595^{737,0} + 125 t_596^{737,0} + 43 t_597^{737,0}
   + 38 t_598^{737,0} + 42 t_599^{737,0} + 37 t_600^{737,0}
   + 47 t_601^{737,0} + 120 t_602^{737,0} + 329 t_603^{737,0}
   + 59 t_604^{737,0} + 87 t_605^{737,0} + 92 t_606^{737,0}
   + 53 t_607^{737,0} + 60 t_608^{737,0} + 105 t_609^{737,0}
   + 88 t_610^{737,0} + 82 t_611^{737,0} + 161 t_612^{737,0}
   + 90 t_613^{737,0} + 75 t_614^{737,0} + 90 t_615^{737,0}
   + 85 t_616^{737,0} + 214 t_617^{737,0} + 44 t_618^{737,0}
   + 44 t_619^{737,0} + 46 t_620^{737,0} + 42 t_621^{737,0}
   + 51 t_622^{737,0} + 53 t_623^{737,0} + 95 t_624^{737,0}
   + 41 t_625^{737,0} + 84 t_626^{737,0} + 100 t_627^{737,0}
   + 104 t_628^{737,0} + 41 t_629^{737,0} + 133 t_630^{737,0}
   + 44 t_631^{737,0} + 40 t_632^{737,0} + 51 t_633^{737,0}
   + 44 t_634^{737,0} + 39 t_635^{737,0} + 58 t_636^{737,0}
   + 41 t_637^{737,0} + 43 t_638^{737,0} + 43 t_639^{737,0}
   + 44 t_640^{737,0} + 42 t_641^{737,0} + 42 t_642^{737,0}
   + 56 t_643^{737,0} + 105 t_644^{737,0} + 162 t_645^{737,0}
   + 93 t_646^{737,0} + 90 t_647^{737,0} + 51.28 t_647^{610,0}
   + 103 t_648^{737,0} + 52 t_649^{737,0} + 103 t_650^{737,0}
   + 76 t_651^{737,0} + 49 t_652^{737,0} + 88 t_653^{737,0}
   + 79 t_654^{737,0} + 100 t_655^{737,0} + 50 t_656^{737,0}
   + 99 t_657^{737,0} + 98 t_658^{737,0} + 97 t_659^{737,0}
   + 88 t_660^{737,0} + 89 t_661^{737,0} + 77 t_662^{737,0}
   + 92 t_663^{737,0} + 102 t_664^{737,0} + 42 t_665^{737,0}
   + 41 t_666^{737,0} + 46 t_667^{737,0} + 43 t_668^{737,0}
   + 100 t_669^{737,0} + 70 t_670^{737,0} + 224 t_671^{737,0}
   + 51 t_672^{737,0} + 116 t_673^{737,0} + 47 t_674^{737,0}
   + 46 t_675^{737,0} + 88 t_676^{737,0} + 42 t_677^{737,0}
   + 109 t_678^{737,0} + 111 t_679^{737,0} + 48 t_680^{737,0}
   + 52 t_681^{737,0} + 49 t_682^{737,0} + 250 t_683^{737,0}
   + 94 t_684^{737,0} + 98 t_685^{737,0} + 41 t_686^{737,0}
   + 83 t_687^{737,0} + 161 t_688^{737,0} + 42 t_689^{737,0}
   + 43 t_690^{737,0} + 160 t_691^{737,0} + 45 t_692^{737,0}
   + 47 t_693^{737,0} + 191 t_694^{737,0} + 89 t_695^{737,0}
   + 51 t_696^{737,0} + 44 t_697^{737,0} + 106 t_698^{737,0}
   + 89 t_699^{737,0} + 49 t_700^{737,0} + 104 t_701^{737,0}
   + 43 t_702^{737,0} + 80 t_703^{737,0} + 190 t_704^{737,0}
   + 45 t_705^{737,0} + 51 t_706^{737,0} + 94 t_707^{737,0}
   + 120 t_708^{737,0} + 38 t_709^{737,0} + 41 t_710^{737,0}
   + 47 t_711^{737,0} + 45 t_712^{737,0} + 51 t_713^{737,0}
   + 87 t_714^{737,0} + 43 t_715^{737,0} + 52 t_716^{737,0}
   + 92 t_717^{737,0} + 92 t_718^{737,0} + 121 t_719^{737,0}
   + 42 t_720^{737,0} + 45 t_721^{737,0} + 83 t_722^{737,0}
   + 50 t_723^{737,0} + 47 t_724^{737,0} + 48 t_725^{737,0}
   + 49 t_726^{737,0} + 39 t_727^{737,0} + 53 t_728^{737,0}
   + 48 t_729^{737,0} + 48 t_730^{737,0} + 140 t_731^{737,0}
   + 94 t_732^{737,0} + 44 t_733^{737,0} + 41 t_734^{737,0}
   + 91 t_735^{737,0} + 79 t_736^{737,0}
Subject To
 R0: t_49^{737,0} + t_102^{737,0} + t_150^{737,0} + t_151^{737,0} >= -33
 R1: t_39^{737,0} + t_152^{737,0} + t_153^{737,0} + t_154^{737,0}
   + t_155^{737,0} + t_156^{737,0} + t_157^{737,0} + 0.56 t_157^{142,0}
   + 0.61 t_157^{149,0} + t_158^{737,0} + t_159^{737,0} + t_160^{737,0}
   + 0.62 t_160^{142,0} + 0.56 t_160^{149,0} + t_161^{737,0}
   + t_559^{737,0} >= 261
 R2: t_628^{737,0} + t_687^{737,0} + t_735^{737,0} >= -155
 R3: t_554^{737,0} + t_555^{737,0} + t_556^{737,0} + t_557^{737,0}
   + t_558^{737,0} + t_559^{737,0} + t_560^{737,0} >= 146
 R4: t_690^{737,0} >= -149
 R5: t_616^{737,0} + t_626^{737,0} + t_653^{737,0} + t_661^{737,0}
   + t_684^{737,0} + t_731^{737,0} >= -24
 R6: t_459^{737,0} + t_460^{737,0} >= -104
 R7: t_95^{737,0} + t_108^{737,0} + t_114^{737,0} + t_130^{737,0}
   + t_139^{737,0} + t_269^{737,0} >= 33
 R8: t_18^{737,0} + t_44^{737,0} + t_63^{737,0} + t_77^{737,0}
   + t_141^{737,0} >= 166
 R9: t_327^{737,0} + t_328^{737,0} + t_329^{737,0} + t_330^{737,0}
   + t_331^{737,0} + t_332^{737,0} + t_333^{737,0} + t_334^{737,0}
   + t_335^{737,0} + t_336^{737,0} >= 160
 R10: t_474^{737,0} + t_479^{737,0} + t_481^{737,0} + t_498^{737,0}
   + t_509^{737,0} + t_516^{737,0} + t_524^{737,0} + t_534^{737,0}
   + t_547^{737,0} + t_563^{737,0} + t_577^{737,0} + t_671^{737,0} >= 329
 R11: t_93^{737,0} + t_94^{737,0} + t_95^{737,0} + t_96^{737,0}
   + t_97^{737,0} + t_98^{737,0} + t_99^{737,0} + t_100^{737,0} >= 115
 R12: t_100^{737,0} + t_156^{737,0} + t_166^{737,0} + t_171^{737,0}
   + t_180^{737,0} + t_213^{737,0} + t_353^{737,0} >= 13
 R13: t_480^{737,0} + t_481^{737,0} + t_482^{737,0} + t_483^{737,0}
   + t_484^{737,0} + t_485^{737,0} + t_486^{737,0} + t_487^{737,0} >= 83
 R14: t_304^{737,0} + t_606^{737,0} + t_614^{737,0} + t_624^{737,0}
   + t_651^{737,0} + t_658^{737,0} + t_714^{737,0} >= -31
 R15: t_8^{737,0} + t_9^{737,0} + t_10^{737,0} + t_11^{737,0}
   + t_12^{737,0} + t_13^{737,0} >= -50
 R16: t_326^{737,0} + t_386^{737,0} + t_396^{737,0} + t_404^{737,0}
   + t_416^{737,0} + t_425^{737,0} + t_454^{737,0} + t_573^{737,0} >= 86
 R17: t_694^{737,0} + t_695^{737,0} >= -35
 R18: t_5^{737,0} + t_11^{737,0} + t_36^{737,0} + t_70^{737,0}
   + t_144^{737,0} + t_556^{737,0} + t_676^{737,0} >= 55
 R19: t_245^{737,0} + t_246^{737,0} + t_247^{737,0} + t_248^{737,0}
   + t_249^{737,0} + 0.53 t_249^{246,0} + t_250^{737,0} + t_251^{737,0}
   + t_252^{737,0} + t_253^{737,0} + t_254^{737,0} + t_255^{737,0} >= 47
 R20: t_301^{737,0} + t_325^{737,0} + t_336^{737,0} + t_351^{737,0}
   + t_378^{737,0} + t_385^{737,0} + t_395^{737,0} + t_403^{737,0}
   + t_424^{737,0} + t_453^{737,0} + t_570^{737,0} >= 57
 R21: t_657^{737,0} + t_658^{737,0} + t_659^{737,0} + t_660^{737,0}
   + t_661^{737,0} + t_662^{737,0} + t_663^{737,0} >= -16
 R22: t_17^{737,0} + t_31^{737,0} + t_42^{737,0} + t_61^{737,0}
   + t_134^{737,0} >= 10
 R23: t_293^{737,0} + t_294^{737,0} + t_295^{737,0} + t_296^{737,0}
   + t_297^{737,0} + t_298^{737,0} + t_299^{737,0} + t_300^{737,0}
   + t_301^{737,0} >= 86
 R24: t_56^{737,0} + t_270^{737,0} + t_271^{737,0} + t_272^{737,0}
   + t_273^{737,0} + t_274^{737,0} + 0.76 t_274^{168,0} + t_275^{737,0}
   + t_276^{737,0} + t_277^{737,0} + 0.51 t_277^{283,0} + t_278^{737,0}
   + 0.79 t_278^{161,0} + t_279^{737,0} + 0.72 t_279^{154,0}
   + t_280^{737,0} + t_281^{737,0} + t_282^{737,0} >= 136
 R25: t_663^{737,0} + t_686^{737,0} + t_733^{737,0} >= -68
 R26: t_302^{737,0} + t_303^{737,0} + t_304^{737,0} + t_305^{737,0}
   + t_306^{737,0} >= 39
 R27: t_54^{737,0} + t_75^{737,0} + t_176^{737,0} >= 100
 R28: t_673^{737,0} + t_674^{737,0} + t_675^{737,0} + t_676^{737,0}
   + t_677^{737,0} >= 69
 R29: t_627^{737,0} + t_654^{737,0} + t_662^{737,0} + t_685^{737,0}
   + t_732^{737,0} >= 40
 R30: t_581^{737,0} + t_582^{737,0} + t_583^{737,0} >= 219
 R31: t_151^{737,0} + t_391^{737,0} >= -9
 R32: t_698^{737,0} + t_699^{737,0} >= -1
 R33: t_306^{737,0} + t_615^{737,0} + t_660^{737,0} + t_722^{737,0} >= -87
 R34: t_33^{737,0} + t_34^{737,0} + t_35^{737,0} + t_36^{737,0}
   + t_37^{737,0} + t_38^{737,0} + t_39^{737,0} >= -37
 R35: t_449^{737,0} + t_538^{737,0} + t_542^{737,0} + t_664^{737,0} >= 21
 R36: t_2^{737,0} + t_3^{737,0} + t_4^{737,0} + t_5^{737,0} + t_6^{737,0}
   + t_7^{737,0} >= -54
 R37: t_74^{737,0} + t_173^{737,0} >= -98
 R38: t_568^{737,0} + t_569^{737,0} >= -121
 R39: t_6^{737,0} + t_12^{737,0} + t_37^{737,0} + t_71^{737,0}
   + t_147^{737,0} + t_557^{737,0} + t_677^{737,0} >= -70
 R40: t_167^{737,0} + t_182^{737,0} + t_188^{737,0} + t_200^{737,0}
   + t_214^{737,0} + t_226^{737,0} + t_240^{737,0} + t_379^{737,0} >= -45
 R41: t_50^{737,0} + t_82^{737,0} + t_103^{737,0} + t_162^{737,0} >= -3
 R42: t_307^{737,0} + t_308^{737,0} + t_309^{737,0} + t_310^{737,0}
   + t_311^{737,0} + t_312^{737,0} + t_313^{737,0} + t_314^{737,0}
   + t_315^{737,0} >= -15
 R43: t_27^{737,0} + t_109^{737,0} >= -70
 R44: t_177^{737,0} + t_178^{737,0} + t_179^{737,0} + t_180^{737,0}
   + t_181^{737,0} + t_182^{737,0} + t_183^{737,0} + t_184^{737,0}
   + t_185^{737,0} >= 29
 R45: t_475^{737,0} + t_483^{737,0} + t_510^{737,0} + t_525^{737,0}
   + t_535^{737,0} + t_549^{737,0} + t_564^{737,0} + t_578^{737,0}
   + t_590^{737,0} + 0.52 t_590^{595,0} + t_678^{737,0} >= 78
 R46: t_723^{737,0} + t_724^{737,0} >= -79
 R47: t_397^{737,0} + t_407^{737,0} + t_419^{737,0} + t_428^{737,0}
   + t_436^{737,0} + t_455^{737,0} + t_602^{737,0} >= 44
 R48: t_679^{737,0} + t_680^{737,0} + t_681^{737,0} >= -41
 R49: t_106^{737,0} + t_111^{737,0} + t_121^{737,0} + 0.71 t_121^{82,0}
   + t_128^{737,0} + t_137^{737,0} + t_210^{737,0} >= 15
 R50: t_362^{737,0} + t_363^{737,0} + t_364^{737,0} + t_365^{737,0}
   + t_366^{737,0} + t_367^{737,0} >= -2
 R51: t_223^{737,0} + t_238^{737,0} + t_280^{737,0} + t_292^{737,0}
   + t_294^{737,0} + t_329^{737,0} + t_346^{737,0} + t_358^{737,0}
   + t_371^{737,0} + t_463^{737,0} >= 21
 R52: t_584^{737,0} + t_585^{737,0} + t_586^{737,0} + 0.52 t_586^{588,0}
   + t_587^{737,0} + t_588^{737,0} >= 19
 R53: t_595^{737,0} + t_600^{737,0} + t_619^{737,0} + t_633^{737,0}
   + t_640^{737,0} + t_713^{737,0} >= -42
 R54: t_194^{737,0} + t_207^{737,0} + t_232^{737,0} + t_250^{737,0}
   + t_263^{737,0} + t_273^{737,0} + t_310^{737,0} + t_401^{737,0} >= -27
 R55: t_527^{737,0} + t_528^{737,0} + t_529^{737,0} + t_530^{737,0}
   + t_531^{737,0} + t_532^{737,0} + t_533^{737,0} + t_534^{737,0}
   + t_535^{737,0} + t_536^{737,0} >= -1
 R56: t_484^{737,0} + t_511^{737,0} + t_550^{737,0} + t_565^{737,0}
   + t_585^{737,0} + t_591^{737,0} + t_682^{737,0} >= -27
 R57: t_729^{737,0} + t_730^{737,0} >= -85
 R58: t_107^{737,0} + t_112^{737,0} + t_122^{737,0} + t_138^{737,0}
   + t_217^{737,0} >= 134
 R59: t_370^{737,0} + t_371^{737,0} + t_372^{737,0} + t_373^{737,0}
   + t_374^{737,0} + t_375^{737,0} + t_376^{737,0} + 0.74 t_376^{200,0}
   + t_377^{737,0} + t_378^{737,0} >= 171
 R60: t_228^{737,0} + t_229^{737,0} + t_230^{737,0} + t_231^{737,0}
   + t_232^{737,0} + t_233^{737,0} + t_234^{737,0} + t_235^{737,0}
   + t_236^{737,0} + t_237^{737,0} + t_238^{737,0} >= -23
 R61: t_96^{737,0} + t_115^{737,0} + t_124^{737,0} + t_131^{737,0}
   + t_140^{737,0} + t_316^{737,0} >= 61
 R62: t_402^{737,0} + t_403^{737,0} + t_404^{737,0} + t_405^{737,0}
   + t_406^{737,0} + t_407^{737,0} + t_408^{737,0} + t_409^{737,0} >= 41
 R63: t_221^{737,0} + t_254^{737,0} + t_267^{737,0} + t_278^{737,0}
   + 0.79 t_278^{161,0} + t_290^{737,0} + t_313^{737,0} + t_344^{737,0}
   + t_356^{737,0} + t_363^{737,0} + t_461^{737,0} >= 1
 R64: t_596^{737,0} + t_597^{737,0} + t_598^{737,0} + t_599^{737,0}
   + t_600^{737,0} + t_601^{737,0} >= 21
 R65: t_420^{737,0} + t_430^{737,0} + t_438^{737,0} + t_457^{737,0}
   + t_467^{737,0} + t_490^{737,0} + t_609^{737,0} >= 5
 R66: t_161^{737,0} + t_184^{737,0} + t_191^{737,0} + t_204^{737,0}
   + t_215^{737,0} + t_227^{737,0} + t_241^{737,0} + t_243^{737,0}
   + t_247^{737,0} + t_260^{737,0} + t_318^{737,0} + t_392^{737,0} >= 40
 R67: t_502^{737,0} + t_503^{737,0} + t_504^{737,0} + t_505^{737,0}
   + t_506^{737,0} + t_507^{737,0} + t_508^{737,0} + t_509^{737,0}
   + t_510^{737,0} + t_511^{737,0} + t_512^{737,0} + t_513^{737,0} >= 89
 R68: t_32^{737,0} + t_43^{737,0} + t_62^{737,0} + t_135^{737,0} >= -93
 R69: t_487^{737,0} + t_587^{737,0} + t_598^{737,0} + t_618^{737,0}
   + t_631^{737,0} + t_666^{737,0} + t_704^{737,0} >= 124
 R70: t_126^{737,0} + t_127^{737,0} + t_128^{737,0} + t_129^{737,0}
   + t_130^{737,0} + t_131^{737,0} >= 132
 R71: t_16^{737,0} + t_30^{737,0} + t_41^{737,0} + t_60^{737,0}
   + t_133^{737,0} >= 15
 R72: t_198^{737,0} + t_199^{737,0} + t_200^{737,0} + t_201^{737,0}
   + t_202^{737,0} + t_203^{737,0} + t_204^{737,0} + t_205^{737,0}
   + t_206^{737,0} + t_207^{737,0} + t_208^{737,0} + t_209^{737,0} >= 158
 R73: t_98^{737,0} + t_154^{737,0} + t_164^{737,0} + t_170^{737,0}
   + t_178^{737,0} + t_342^{737,0} >= 97
 R74: t_415^{737,0} + t_416^{737,0} + t_417^{737,0} + t_418^{737,0}
   + t_419^{737,0} + t_420^{737,0} + t_421^{737,0} + t_422^{737,0}
   + 0.7 t_422^{372,0} >= 180
 R75: t_398^{737,0} + 0.7 t_398^{291,0} + t_408^{737,0} + t_429^{737,0}
   + t_437^{737,0} + t_456^{737,0} + t_489^{737,0} + t_603^{737,0} >= 229
 R76: t_691^{737,0} + t_692^{737,0} + t_693^{737,0} >= -9
 R77: t_222^{737,0} + t_237^{737,0} + t_255^{737,0} + t_279^{737,0}
   + 0.72 t_279^{154,0} + t_291^{737,0} + t_314^{737,0} + t_320^{737,0}
   + t_322^{737,0} + t_328^{737,0} + t_345^{737,0} + t_357^{737,0}
   + t_364^{737,0} + t_462^{737,0} >= 207
 R78: t_589^{737,0} + t_590^{737,0} + 0.52 t_590^{595,0} + t_591^{737,0}
   + t_592^{737,0} + t_593^{737,0} + t_594^{737,0} + t_595^{737,0} >= 198
 R79: t_380^{737,0} + t_381^{737,0} + t_382^{737,0} + t_383^{737,0}
   + t_384^{737,0} + t_385^{737,0} + t_386^{737,0} + t_387^{737,0}
   + 0.7 t_387^{282,0} >= 4
 R80: t_239^{737,0} + t_240^{737,0} + t_241^{737,0} >= -120
 R81: t_52^{737,0} + t_84^{737,0} + t_175^{737,0} >= -116
 R82: t_317^{737,0} + t_318^{737,0} + t_319^{737,0} + t_320^{737,0}
   >= -108
 R83: t_136^{737,0} + t_137^{737,0} + t_138^{737,0} + t_139^{737,0}
   + t_140^{737,0} >= -65
 R84: t_45^{737,0} + t_64^{737,0} + t_78^{737,0} + t_143^{737,0} >= -71
 R85: t_211^{737,0} + t_212^{737,0} + t_213^{737,0} + t_214^{737,0}
   + t_215^{737,0} >= -64
 R86: t_28^{737,0} + t_125^{737,0} >= -133
 R87: t_727^{737,0} >= -107
 R88: t_387^{737,0} + 0.7 t_387^{282,0} + t_405^{737,0} + t_417^{737,0}
   + t_426^{737,0} + t_574^{737,0} >= -70
 R89: t_649^{737,0} + t_650^{737,0} + t_651^{737,0} + t_652^{737,0}
   + t_653^{737,0} + t_654^{737,0} >= -108
 R90: t_369^{737,0} >= -147
 R91: t_447^{737,0} >= -144
 R92: t_257^{737,0} >= -149
 R93: t_282^{737,0} + t_296^{737,0} + t_331^{737,0} + t_348^{737,0}
   + t_373^{737,0} + t_465^{737,0} >= -71
 R94: t_575^{737,0} + t_576^{737,0} + t_577^{737,0} + t_578^{737,0}
   + t_579^{737,0} >= -66
 R95: t_610^{737,0} >= -140
 R96: t_720^{737,0} >= -153
 R97: t_486^{737,0} + t_513^{737,0} + t_551^{737,0} + t_593^{737,0}
   + t_597^{737,0} + t_696^{737,0} >= -60
 R98: t_101^{737,0} + t_102^{737,0} + t_103^{737,0} + t_104^{737,0}
   + t_105^{737,0} + t_106^{737,0} + t_107^{737,0} + t_108^{737,0} >= -50
 R99: t_174^{737,0} >= -151
 R100: t_611^{737,0} >= -149
 R101: t_552^{737,0} >= -141
 R102: t_220^{737,0} + t_235^{737,0} + t_244^{737,0} + t_253^{737,0}
   + t_266^{737,0} + t_289^{737,0} + t_312^{737,0} + t_319^{737,0}
   + t_338^{737,0} + t_355^{737,0} + 0.69 t_355^{266,0} + t_433^{737,0}
   >= -56
 R103: t_47^{737,0} + t_80^{737,0} + t_146^{737,0} >= -63
 R104: t_225^{737,0} + t_226^{737,0} + t_227^{737,0} >= -77
 R105: t_159^{737,0} + t_189^{737,0} + t_202^{737,0} + t_389^{737,0}
   >= -84
 R106: t_452^{737,0} + t_453^{737,0} + t_454^{737,0} + t_455^{737,0}
   + t_456^{737,0} + t_457^{737,0} + t_458^{737,0} >= -52
 R107: t_406^{737,0} + t_418^{737,0} + t_427^{737,0} + t_435^{737,0}
   + t_580^{737,0} >= -54
 R108: t_665^{737,0} + t_666^{737,0} + t_667^{737,0} >= -78
 R109: t_99^{737,0} + t_155^{737,0} + t_165^{737,0} + t_179^{737,0}
   + t_212^{737,0} + t_352^{737,0} >= -34
 R110: t_423^{737,0} + t_424^{737,0} + t_425^{737,0} + t_426^{737,0}
   + t_427^{737,0} + t_428^{737,0} + t_429^{737,0} + t_430^{737,0}
   + t_431^{737,0} + t_432^{737,0} >= 44
 R111: t_19^{737,0} + t_46^{737,0} + t_65^{737,0} + t_79^{737,0}
   + t_145^{737,0} >= -13
 R112: t_258^{737,0} + t_259^{737,0} + t_260^{737,0} + t_261^{737,0}
   + t_262^{737,0} + t_263^{737,0} + t_264^{737,0} + t_265^{737,0}
   + t_266^{737,0} + t_267^{737,0} >= -7
 R113: t_85^{737,0} + t_105^{737,0} + t_120^{737,0} + 0.79 t_120^{79,0}
   + 0.82 t_120^{85,0} + t_127^{737,0} + t_197^{737,0} >= 30
 R114: t_354^{737,0} + t_355^{737,0} + 0.69 t_355^{266,0} + t_356^{737,0}
   + t_357^{737,0} + t_358^{737,0} + t_359^{737,0} + t_360^{737,0}
   + t_361^{737,0} + 0.7 t_361^{266,0} >= 11
 R115: t_298^{737,0} + t_333^{737,0} + t_349^{737,0} + t_366^{737,0}
   + t_375^{737,0} + t_382^{737,0} + t_501^{737,0} >= -9
 R116: t_630^{737,0} + t_631^{737,0} + t_632^{737,0} + t_633^{737,0}
   + t_634^{737,0} >= -19
 R117: t_441^{737,0} + 0.71 t_441^{382,0} + t_470^{737,0} + t_494^{737,0}
   + t_504^{737,0} + t_520^{737,0} + t_530^{737,0} + t_644^{737,0} >= 2
 R118: t_705^{737,0} + t_706^{737,0} >= -72
 R119: t_158^{737,0} + t_201^{737,0} + t_388^{737,0} >= -140
 R120: t_476^{737,0} + t_477^{737,0} + t_478^{737,0} + t_479^{737,0}
   >= -135
 R121: t_689^{737,0} + t_693^{737,0} + t_734^{737,0} >= -91
 R122: t_58^{737,0} + t_59^{737,0} + t_60^{737,0} + t_61^{737,0}
   + t_62^{737,0} + t_63^{737,0} + t_64^{737,0} + t_65^{737,0}
   + t_66^{737,0} >= -72
 R123: t_601^{737,0} + t_621^{737,0} + t_641^{737,0} + t_647^{737,0}
   + 0.56 t_647^{610,0} + t_721^{737,0} >= -64
 R124: t_110^{737,0} + t_111^{737,0} + t_112^{737,0} + t_113^{737,0}
   + t_114^{737,0} + t_115^{737,0} >= 4
 R125: t_94^{737,0} + t_113^{737,0} + t_123^{737,0} + t_129^{737,0}
   + t_256^{737,0} >= -9
 R126: t_393^{737,0} + t_394^{737,0} + t_395^{737,0} + t_396^{737,0}
   + t_397^{737,0} + t_398^{737,0} + 0.7 t_398^{291,0} >= -31
 R127: t_4^{737,0} + t_10^{737,0} + t_35^{737,0} + t_69^{737,0}
   + t_142^{737,0} + t_555^{737,0} + t_583^{737,0} + t_675^{737,0} >= 36
 R128: t_286^{737,0} + t_287^{737,0} + t_288^{737,0} + t_289^{737,0}
   + t_290^{737,0} + t_291^{737,0} + t_292^{737,0} >= -74
 R129: t_160^{737,0} + 0.62 t_160^{142,0} + 0.56 t_160^{149,0}
   + t_183^{737,0} + t_190^{737,0} + t_203^{737,0} + t_229^{737,0}
   + t_246^{737,0} + t_259^{737,0} + t_390^{737,0} >= -62
 R130: t_537^{737,0} + t_538^{737,0} + t_539^{737,0} >= -114
 R131: t_193^{737,0} + 0.55 t_193^{190,0} + t_206^{737,0} + t_231^{737,0}
   + t_249^{737,0} + 0.53 t_249^{246,0} + t_262^{737,0} + t_272^{737,0}
   + t_309^{737,0} + t_400^{737,0} >= -35
 R132: t_561^{737,0} + t_562^{737,0} + t_563^{737,0} + t_564^{737,0}
   + t_565^{737,0} + t_566^{737,0} + 0.59 t_566^{537,0} >= -35
 R133: t_422^{737,0} + 0.7 t_422^{372,0} + t_432^{737,0} + t_439^{737,0}
   + t_492^{737,0} + t_519^{737,0} + t_528^{737,0} + t_636^{737,0} >= 1
 R134: t_709^{737,0} + t_710^{737,0} >= -132
 R135: t_224^{737,0} + t_281^{737,0} + t_295^{737,0} + t_315^{737,0}
   + t_330^{737,0} + t_347^{737,0} + t_359^{737,0} + t_372^{737,0}
   + t_464^{737,0} >= -26
 R136: t_157^{737,0} + 0.56 t_157^{142,0} + 0.61 t_157^{149,0}
   + t_181^{737,0} + t_187^{737,0} + 0.53 t_187^{190,0} + t_199^{737,0}
   + t_368^{737,0} >= -100
 R137: t_466^{737,0} + t_467^{737,0} + t_468^{737,0} + 0.79 t_468^{394,0}
   + t_469^{737,0} + t_470^{737,0} + t_471^{737,0} + t_472^{737,0}
   + t_473^{737,0} + t_474^{737,0} + t_475^{737,0} >= -46
 R138: t_497^{737,0} + t_507^{737,0} + t_522^{737,0} + t_532^{737,0}
   + t_545^{737,0} + t_576^{737,0} + t_669^{737,0} >= -23
 R139: t_725^{737,0} + t_726^{737,0} >= -139
 R140: t_7^{737,0} + t_13^{737,0} + t_38^{737,0} + t_72^{737,0}
   + t_149^{737,0} + t_558^{737,0} >= 28
 R141: t_639^{737,0} + t_640^{737,0} + t_641^{737,0} + t_642^{737,0}
   >= -66
 R142: t_604^{737,0} + t_605^{737,0} + t_606^{737,0} + t_607^{737,0}
   >= -53
 R143: t_434^{737,0} + t_435^{737,0} + t_436^{737,0} + t_437^{737,0}
   + t_438^{737,0} + t_439^{737,0} + t_440^{737,0} + t_441^{737,0}
   + 0.71 t_441^{382,0} + t_442^{737,0} + 0.72 t_442^{381,0}
   + t_443^{737,0} >= 135
 R144: t_91^{737,0} >= -113
 R145: t_73^{737,0} + t_168^{737,0} + t_560^{737,0} >= -93
 R146: t_637^{737,0} + t_638^{737,0} >= -108
 R147: t_715^{737,0} >= -112
 R148: t_300^{737,0} + t_335^{737,0} + t_377^{737,0} + t_384^{737,0}
   + t_553^{737,0} >= -92
 R149: t_337^{737,0} + t_338^{737,0} >= -104
 R150: t_274^{737,0} + 0.76 t_274^{168,0} + t_410^{737,0} >= -107
 R151: t_514^{737,0} + t_515^{737,0} + t_516^{737,0} + t_517^{737,0}
   >= -96
 R152: t_20^{737,0} + t_48^{737,0} + t_66^{737,0} + t_81^{737,0}
   + t_148^{737,0} >= -36
 R153: t_242^{737,0} + t_243^{737,0} + t_244^{737,0} >= -65
 R154: t_196^{737,0} + t_209^{737,0} + t_219^{737,0} + t_234^{737,0}
   + t_252^{737,0} + t_265^{737,0} + t_276^{737,0} + t_288^{737,0}
   + t_311^{737,0} + t_414^{737,0} >= -14
 R155: t_518^{737,0} + t_519^{737,0} + t_520^{737,0} + t_521^{737,0}
   + t_522^{737,0} + t_523^{737,0} + t_524^{737,0} + t_525^{737,0}
   + t_526^{737,0} >= -8
 R156: t_185^{737,0} + t_192^{737,0} + t_205^{737,0} + t_230^{737,0}
   + t_248^{737,0} + t_261^{737,0} + t_271^{737,0} + t_287^{737,0}
   + t_308^{737,0} + t_399^{737,0} >= -18
 R157: t_488^{737,0} + t_489^{737,0} + t_490^{737,0} + t_491^{737,0}
   + t_492^{737,0} + t_493^{737,0} + t_494^{737,0} + t_495^{737,0}
   + t_496^{737,0} + t_497^{737,0} + t_498^{737,0} >= 16
 R158: t_440^{737,0} + t_469^{737,0} + t_493^{737,0} + t_503^{737,0}
   + t_529^{737,0} + t_643^{737,0} >= -18
 R159: t_700^{737,0} >= -86
 R160: t_473^{737,0} + t_508^{737,0} + t_523^{737,0} + t_533^{737,0}
   + t_546^{737,0} + t_562^{737,0} + t_670^{737,0} >= -26
 R161: t_711^{737,0} >= -94
 R162: t_285^{737,0} + t_299^{737,0} + t_324^{737,0} + t_334^{737,0}
   + t_350^{737,0} + t_361^{737,0} + 0.7 t_361^{266,0} + t_367^{737,0}
   + t_376^{737,0} + 0.74 t_376^{200,0} + t_394^{737,0} + t_541^{737,0}
   + t_542^{737,0} >= 153
 R163: t_499^{737,0} >= -112
 R164: t_339^{737,0} >= -109
 R165: t_340^{737,0} >= -106
 R166: t_444^{737,0} >= -112
 R167: t_445^{737,0} >= -110
 R168: t_169^{737,0} + t_170^{737,0} + t_171^{737,0} >= -141
 R169: t_701^{737,0} + t_702^{737,0} >= -98
 R170: t_97^{737,0} + t_153^{737,0} + t_341^{737,0} >= -131
 R171: t_482^{737,0} + t_548^{737,0} + t_672^{737,0} >= -95
 R172: t_703^{737,0} >= -141
 R173: t_67^{737,0} >= -154
 R174: t_620^{737,0} + t_646^{737,0} + t_716^{737,0} >= -133
 R175: t_14^{737,0} + t_15^{737,0} + t_16^{737,0} + t_17^{737,0}
   + t_18^{737,0} + t_19^{737,0} + t_20^{737,0} >= -113
 R176: t_51^{737,0} + t_83^{737,0} + t_104^{737,0} + t_172^{737,0} >= -17
 R177: t_343^{737,0} + t_344^{737,0} + t_345^{737,0} + t_346^{737,0}
   + t_347^{737,0} + t_348^{737,0} + t_349^{737,0} + t_350^{737,0}
   + t_351^{737,0} >= 40
 R178: t_23^{737,0} + t_87^{737,0} >= -86
 R179: t_186^{737,0} + t_187^{737,0} + 0.53 t_187^{190,0} + t_188^{737,0}
   + t_189^{737,0} + t_190^{737,0} + t_191^{737,0} + t_192^{737,0}
   + t_193^{737,0} + 0.55 t_193^{190,0} + t_194^{737,0} + t_195^{737,0}
   + t_196^{737,0} >= 85
 R180: t_442^{737,0} + 0.72 t_442^{381,0} + t_471^{737,0} + t_478^{737,0}
   + t_495^{737,0} + t_505^{737,0} + t_515^{737,0} + t_521^{737,0}
   + t_531^{737,0} + t_655^{737,0} >= 16
 R181: t_717^{737,0} + t_718^{737,0} >= -70
 R182: t_297^{737,0} + t_323^{737,0} + t_332^{737,0} + t_360^{737,0}
   + t_365^{737,0} + t_374^{737,0} + t_381^{737,0} + t_500^{737,0} >= -13
 R183: t_645^{737,0} + t_646^{737,0} + t_647^{737,0} + 0.56 t_647^{610,0}
   + t_648^{737,0} >= 8
 R184: t_411^{737,0} >= -112
 R185: t_268^{737,0} >= -111
 R186: t_195^{737,0} + t_208^{737,0} + t_233^{737,0} + t_251^{737,0}
   + t_264^{737,0} + t_275^{737,0} + t_413^{737,0} >= -58
 R187: t_608^{737,0} >= -84
 R188: t_29^{737,0} + t_132^{737,0} >= -95
 R189: t_321^{737,0} + t_322^{737,0} + t_323^{737,0} + t_324^{737,0}
   + t_325^{737,0} + t_326^{737,0} >= -60
 R190: t_25^{737,0} + t_89^{737,0} >= -80
 R191: t_218^{737,0} + t_219^{737,0} + t_220^{737,0} + t_221^{737,0}
   + t_222^{737,0} + t_223^{737,0} + t_224^{737,0} >= -5
 R192: t_55^{737,0} + t_117^{737,0} + t_216^{737,0} >= -136
 R193: t_448^{737,0} + t_449^{737,0} + t_450^{737,0} >= -143
 R194: t_412^{737,0} >= -112
 R195: t_24^{737,0} + t_88^{737,0} >= -97
 R196: t_163^{737,0} + t_164^{737,0} + t_165^{737,0} + t_166^{737,0}
   + t_167^{737,0} >= -53
 R197: t_443^{737,0} + t_472^{737,0} + t_496^{737,0} + t_506^{737,0}
   + t_544^{737,0} + t_656^{737,0} >= -47
 R198: t_712^{737,0} >= -102
 R199: t_57^{737,0} + t_118^{737,0} + t_283^{737,0} >= -123
 R200: t_567^{737,0} >= -149
 R201: t_236^{737,0} + t_277^{737,0} + 0.51 t_277^{283,0} + t_446^{737,0}
   >= -130
 R202: t_623^{737,0} + t_624^{737,0} + t_625^{737,0} + t_626^{737,0}
   + t_627^{737,0} + t_628^{737,0} + t_629^{737,0} >= -100
 R203: t_451^{737,0} >= -113
 R204: t_635^{737,0} >= -135
 R205: t_90^{737,0} >= -155
 R206: t_284^{737,0} + t_285^{737,0} >= -143
 R207: t_622^{737,0} + t_634^{737,0} + t_642^{737,0} + t_648^{737,0}
   + t_681^{737,0} + t_728^{737,0} >= -105
 R208: t_40^{737,0} + t_41^{737,0} + t_42^{737,0} + t_43^{737,0}
   + t_44^{737,0} + t_45^{737,0} + t_46^{737,0} + t_47^{737,0}
   + t_48^{737,0} + t_49^{737,0} + t_50^{737,0} + t_51^{737,0}
   + t_52^{737,0} >= 36
 R209: t_383^{737,0} + t_540^{737,0} >= -150
 R210: t_697^{737,0} >= -148
 R211: t_26^{737,0} + t_92^{737,0} >= -99
 R212: t_668^{737,0} >= -88
 R213: t_543^{737,0} + t_544^{737,0} + t_545^{737,0} + t_546^{737,0}
   + t_547^{737,0} + t_548^{737,0} + t_549^{737,0} + t_550^{737,0}
   + t_551^{737,0} >= 38
 R214: t_303^{737,0} + t_605^{737,0} + t_613^{737,0} + t_650^{737,0}
   + t_707^{737,0} >= -19
 R215: t_53^{737,0} + t_54^{737,0} + t_55^{737,0} + t_56^{737,0}
   + t_57^{737,0} >= -22
 R216: t_1^{737,0} + t_86^{737,0} >= -137
 R217: t_571^{737,0} + t_572^{737,0} >= -98
 R218: t_0^{737,0} + t_1^{737,0} + t_680^{737,0} + t_692^{737,0}
   + t_702^{737,0} + t_706^{737,0} >= -171
 R219: t_409^{737,0} + t_421^{737,0} + t_431^{737,0} + t_458^{737,0}
   + t_468^{737,0} + 0.79 t_468^{394,0} + t_477^{737,0} + t_491^{737,0}
   + t_612^{737,0} + t_613^{737,0} + t_614^{737,0} + t_615^{737,0}
   + t_616^{737,0} >= 275
 R220: t_617^{737,0} + t_618^{737,0} + t_619^{737,0} + t_620^{737,0}
   + t_621^{737,0} + t_622^{737,0} >= -17
 R221: t_485^{737,0} + t_512^{737,0} + t_517^{737,0} + t_526^{737,0}
   + t_536^{737,0} + t_566^{737,0} + 0.59 t_566^{537,0} + t_579^{737,0}
   + t_586^{737,0} + 0.52 t_586^{588,0} + t_592^{737,0} + t_683^{737,0}
   + t_684^{737,0} + t_685^{737,0} + t_686^{737,0} + t_687^{737,0} >= 341
 R222: t_450^{737,0} + t_539^{737,0} + t_688^{737,0} + t_689^{737,0}
   >= -75
 R223: t_588^{737,0} + t_594^{737,0} + t_599^{737,0} + t_632^{737,0}
   + t_667^{737,0} + t_708^{737,0} >= -66
 R224: t_305^{737,0} + t_607^{737,0} + t_625^{737,0} + t_638^{737,0}
   + t_652^{737,0} + t_659^{737,0} + t_719^{737,0} >= -74
 R225: t_629^{737,0} + t_736^{737,0} >= -194
 R226: t_21^{737,0} + t_695^{737,0} + t_710^{737,0} + t_718^{737,0}
   + t_724^{737,0} + t_726^{737,0} + t_730^{737,0} >= -171
 R227: t_22^{737,0} + t_23^{737,0} + t_24^{737,0} + t_25^{737,0}
   + t_26^{737,0} + t_27^{737,0} + t_28^{737,0} + t_29^{737,0}
   + t_30^{737,0} + t_31^{737,0} + t_32^{737,0} + t_569^{737,0} >= -32
 R228: t_68^{737,0} + t_69^{737,0} + t_70^{737,0} + t_71^{737,0}
   + t_72^{737,0} + t_73^{737,0} + t_74^{737,0} + t_75^{737,0} >= 78
 R229: t_76^{737,0} + t_77^{737,0} + t_78^{737,0} + t_79^{737,0}
   + t_80^{737,0} + t_81^{737,0} + t_82^{737,0} + t_83^{737,0}
   + t_84^{737,0} + t_85^{737,0} >= 32
 R230: t_15^{737,0} + t_59^{737,0} + t_116^{737,0} + t_117^{737,0}
   + t_118^{737,0} >= -83
 R231: t_3^{737,0} + t_9^{737,0} + t_34^{737,0} + t_119^{737,0}
   + t_120^{737,0} + 0.79 t_120^{79,0} + 0.82 t_120^{85,0} + t_121^{737,0}
   + 0.71 t_121^{82,0} + t_122^{737,0} + t_123^{737,0} + t_124^{737,0}
   + t_460^{737,0} + t_572^{737,0} + t_582^{737,0} + t_674^{737,0}
   + t_699^{737,0} >= 468
 R232: t_737^{737,0} >= -10000
 R233: t_187^{190,0} <= 8
 R234: t_187^{190,0} <= 8
 R235: t_249^{246,0} <= 8
 R236: t_279^{154,0} <= 41
 R237: t_376^{200,0} <= 48
 R238: t_468^{394,0} <= 18
 R239: t_586^{588,0} <= 29
 R240: t_590^{595,0} <= 26
 R241: t_193^{190,0} <= 9
 R242: t_193^{190,0} <= 9
 R243: t_274^{168,0} <= 4
Bounds
End
